NAME: CVRP_BENCHMARK
TYPE: CVRP
COMMENT: none
DIMENSION: 101
NUM_DAYS: 5
CAPACITY: 200
DISTANCE: 9999999
EDGE_WEIGHT_TYPE: FUNCTION
EDGE_WEIGHT_FORMAT: EUC_2D
NODE_COORD_TYPE: TWOD_COORDS
NODE_COORD_SECTION
1	6.000 14.000
2	0.000 -18.000
3	20.000 10.000
4	20.000 -15.000
5	-20.000 -5.000
6	-10.000 -5.000
7	-15.000 15.000
8	-25.000 8.000
9	20.000 25.000
10	-5.000 25.000
11	-15.000 30.000
12	15.000 0.000
13	-5.000 -10.000
14	-20.000 -25.000
15	-5.000 -30.000
16	-25.000 -15.000
17	-30.000 -5.000
18	-15.000 5.000
19	-20.000 25.000
20	10.000 30.000
21	10.000 -15.000
22	10.000 -25.000
23	20.000 -30.000
24	30.000 0.000
25	30.000 -15.000
26	10.000 -5.000
27	0.000 5.000
28	6.000 2.000
29	29.000 7.000
30	5.000 25.000
31	-4.000 17.000
32	0.000 34.000
33	18.000 17.000
34	30.000 20.000
35	28.000 30.000
36	-33.000 25.000
37	-15.000 -15.000
38	-30.000 -30.000
39	25.000 -23.000
40	5.000 -10.000
41	7.000 -28.000
42	-11.000 -23.000
43	-12.000 -32.000
44	-24.000 -21.000
45	-29.000 3.000
46	-33.000 13.000
47	-27.000 21.000
48	-22.000 17.000
49	-29.000 33.000
50	12.000 12.000
51	14.000 23.000
52	-8.000 8.000
53	2.000 -4.000
54	22.000 -6.000
55	28.000 -12.000
56	18.000 -23.000
57	-3.000 -23.000
58	1.000 -9.000
59	-14.000 -11.000
60	-18.000 -1.000
61	-23.000 -11.000
62	-11.000 23.000
63	-8.000 34.000
64	-20.000 42.000
65	27.000 42.000
66	14.000 38.000
67	32.000 -30.000
68	21.000 4.000
69	2.000 12.000
70	2.000 21.000
71	22.000 33.000
72	12.000 -19.000
73	9.000 -18.000
74	11.000 -22.000
75	14.000 -24.000
76	14.000 7.000
77	18.000 8.000
78	26.000 17.000
79	22.000 13.000
80	21.000 2.000
81	20.000 19.000
82	-20.000 12.000
83	-21.000 2.000
84	-24.000 -4.000
85	-19.000 -13.000
86	-31.000 -17.000
87	-7.000 -17.000
88	-9.000 17.000
89	-9.000 0.000
90	-4.000 32.000
91	-20.000 -16.000
92	-13.000 -13.000
93	-17.000 -11.000
94	-9.000 -8.000
95	-10.000 -11.000
96	-13.000 -8.000
97	-10.000 -14.000
98	-16.000 -14.000
99	-15.000 -9.000
100	-17.000 -17.000
DEMAND_SECTION
1 10 10 10 -1 10
2 -1 7 -1 -1 -1
3 13 13 13 13 13
4 19 19 19 19 19
5 26 -1 26 -1 26
6 3 3 3 3 -1
7 5 5 5 5 -1
8 9 9 9 -1 9
9 -1 -1 -1 16 16
10 16 16 16 16 -1
11 12 -1 -1 12 12
12 19 -1 19 19 19
13 23 23 23 23 -1
14 -1 20 20 -1 20
15 8 8 8 8 8
16 -1 -1 19 19 19
17 2 2 2 -1 2
18 12 -1 -1 -1 12
19 -1 17 17 17 17
20 9 9 9 9 9
21 11 -1 11 -1 11
22 18 18 18 18 -1
23 -1 -1 29 29 29
24 3 3 -1 -1 3
25 6 6 6 6 6
26 -1 -1 -1 -1 17
27 16 16 16 -1 16
28 16 -1 16 16 16
29 9 -1 9 9 -1
30 21 21 21 21 -1
31 -1 -1 27 -1 27
32 23 23 23 23 23
33 -1 -1 11 -1 11
34 14 -1 14 -1 14
35 8 8 8 8 8
36 5 5 5 5 -1
37 8 -1 8 -1 8
38 -1 -1 16 16 16
39 -1 31 31 31 31
40 -1 -1 9 -1 9
41 -1 -1 -1 -1 5
42 5 5 5 5 5
43 7 7 -1 -1 7
44 -1 18 -1 -1 18
45 16 16 -1 16 -1
46 -1 1 -1 -1 1
47 27 27 27 27 -1
48 -1 -1 -1 36 36
49 30 -1 -1 30 30
50 -1 -1 13 13 13
51 10 10 10 -1 10
52 9 -1 -1 -1 9
53 -1 14 14 14 14
54 18 -1 -1 18 18
55 -1 -1 2 2 -1
56 6 6 6 6 6
57 -1 7 -1 -1 -1
58 18 18 18 18 -1
59 28 28 -1 28 -1
60 3 -1 3 -1 3
61 -1 13 13 13 13
62 19 -1 19 -1 19
63 10 10 10 10 10
64 -1 9 9 -1 9
65 20 20 -1 20 20
66 25 25 25 25 -1
67 25 25 25 -1 -1
68 36 36 36 36 36
69 6 -1 6 -1 -1
70 -1 -1 -1 5 -1
71 15 15 15 15 -1
72 25 25 25 25 25
73 9 9 9 9 9
74 8 8 -1 -1 8
75 -1 -1 18 18 18
76 -1 -1 -1 13 13
77 -1 -1 14 14 14
78 3 -1 3 3 3
79 23 -1 -1 23 23
80 6 6 6 6 -1
81 26 26 26 -1 26
82 16 16 16 -1 16
83 11 11 11 11 -1
84 7 7 7 -1 7
85 41 -1 -1 41 -1
86 35 35 35 -1 35
87 -1 26 26 -1 26
88 9 9 9 9 -1
89 15 -1 -1 15 15
90 3 -1 -1 3 3
91 1 1 1 -1 1
92 2 -1 2 2 2
93 22 22 -1 22 -1
94 -1 27 27 27 -1
95 20 20 20 -1 20
96 -1 11 -1 11 11
97 12 -1 12 12 -1
98 10 -1 10 10 10
99 -1 -1 9 -1 9
100 17 -1 -1 17 17
SVC_TIME_SECTION
1	0.000000	0.000000	0.000000	0.000000	0.000000	
2	0.000000	0.000000	0.000000	0.000000	0.000000	
3	0.000000	0.000000	0.000000	0.000000	0.000000	
4	0.000000	0.000000	0.000000	0.000000	0.000000	
5	0.000000	0.000000	0.000000	0.000000	0.000000	
6	0.000000	0.000000	0.000000	0.000000	0.000000	
7	0.000000	0.000000	0.000000	0.000000	0.000000	
8	0.000000	0.000000	0.000000	0.000000	0.000000	
9	0.000000	0.000000	0.000000	0.000000	0.000000	
10	0.000000	0.000000	0.000000	0.000000	0.000000	
11	0.000000	0.000000	0.000000	0.000000	0.000000	
12	0.000000	0.000000	0.000000	0.000000	0.000000	
13	0.000000	0.000000	0.000000	0.000000	0.000000	
14	0.000000	0.000000	0.000000	0.000000	0.000000	
15	0.000000	0.000000	0.000000	0.000000	0.000000	
16	0.000000	0.000000	0.000000	0.000000	0.000000	
17	0.000000	0.000000	0.000000	0.000000	0.000000	
18	0.000000	0.000000	0.000000	0.000000	0.000000	
19	0.000000	0.000000	0.000000	0.000000	0.000000	
20	0.000000	0.000000	0.000000	0.000000	0.000000	
21	0.000000	0.000000	0.000000	0.000000	0.000000	
22	0.000000	0.000000	0.000000	0.000000	0.000000	
23	0.000000	0.000000	0.000000	0.000000	0.000000	
24	0.000000	0.000000	0.000000	0.000000	0.000000	
25	0.000000	0.000000	0.000000	0.000000	0.000000	
26	0.000000	0.000000	0.000000	0.000000	0.000000	
27	0.000000	0.000000	0.000000	0.000000	0.000000	
28	0.000000	0.000000	0.000000	0.000000	0.000000	
29	0.000000	0.000000	0.000000	0.000000	0.000000	
30	0.000000	0.000000	0.000000	0.000000	0.000000	
31	0.000000	0.000000	0.000000	0.000000	0.000000	
32	0.000000	0.000000	0.000000	0.000000	0.000000	
33	0.000000	0.000000	0.000000	0.000000	0.000000	
34	0.000000	0.000000	0.000000	0.000000	0.000000	
35	0.000000	0.000000	0.000000	0.000000	0.000000	
36	0.000000	0.000000	0.000000	0.000000	0.000000	
37	0.000000	0.000000	0.000000	0.000000	0.000000	
38	0.000000	0.000000	0.000000	0.000000	0.000000	
39	0.000000	0.000000	0.000000	0.000000	0.000000	
40	0.000000	0.000000	0.000000	0.000000	0.000000	
41	0.000000	0.000000	0.000000	0.000000	0.000000	
42	0.000000	0.000000	0.000000	0.000000	0.000000	
43	0.000000	0.000000	0.000000	0.000000	0.000000	
44	0.000000	0.000000	0.000000	0.000000	0.000000	
45	0.000000	0.000000	0.000000	0.000000	0.000000	
46	0.000000	0.000000	0.000000	0.000000	0.000000	
47	0.000000	0.000000	0.000000	0.000000	0.000000	
48	0.000000	0.000000	0.000000	0.000000	0.000000	
49	0.000000	0.000000	0.000000	0.000000	0.000000	
50	0.000000	0.000000	0.000000	0.000000	0.000000	
51	0.000000	0.000000	0.000000	0.000000	0.000000	
52	0.000000	0.000000	0.000000	0.000000	0.000000	
53	0.000000	0.000000	0.000000	0.000000	0.000000	
54	0.000000	0.000000	0.000000	0.000000	0.000000	
55	0.000000	0.000000	0.000000	0.000000	0.000000	
56	0.000000	0.000000	0.000000	0.000000	0.000000	
57	0.000000	0.000000	0.000000	0.000000	0.000000	
58	0.000000	0.000000	0.000000	0.000000	0.000000	
59	0.000000	0.000000	0.000000	0.000000	0.000000	
60	0.000000	0.000000	0.000000	0.000000	0.000000	
61	0.000000	0.000000	0.000000	0.000000	0.000000	
62	0.000000	0.000000	0.000000	0.000000	0.000000	
63	0.000000	0.000000	0.000000	0.000000	0.000000	
64	0.000000	0.000000	0.000000	0.000000	0.000000	
65	0.000000	0.000000	0.000000	0.000000	0.000000	
66	0.000000	0.000000	0.000000	0.000000	0.000000	
67	0.000000	0.000000	0.000000	0.000000	0.000000	
68	0.000000	0.000000	0.000000	0.000000	0.000000	
69	0.000000	0.000000	0.000000	0.000000	0.000000	
70	0.000000	0.000000	0.000000	0.000000	0.000000	
71	0.000000	0.000000	0.000000	0.000000	0.000000	
72	0.000000	0.000000	0.000000	0.000000	0.000000	
73	0.000000	0.000000	0.000000	0.000000	0.000000	
74	0.000000	0.000000	0.000000	0.000000	0.000000	
75	0.000000	0.000000	0.000000	0.000000	0.000000	
76	0.000000	0.000000	0.000000	0.000000	0.000000	
77	0.000000	0.000000	0.000000	0.000000	0.000000	
78	0.000000	0.000000	0.000000	0.000000	0.000000	
79	0.000000	0.000000	0.000000	0.000000	0.000000	
80	0.000000	0.000000	0.000000	0.000000	0.000000	
81	0.000000	0.000000	0.000000	0.000000	0.000000	
82	0.000000	0.000000	0.000000	0.000000	0.000000	
83	0.000000	0.000000	0.000000	0.000000	0.000000	
84	0.000000	0.000000	0.000000	0.000000	0.000000	
85	0.000000	0.000000	0.000000	0.000000	0.000000	
86	0.000000	0.000000	0.000000	0.000000	0.000000	
87	0.000000	0.000000	0.000000	0.000000	0.000000	
88	0.000000	0.000000	0.000000	0.000000	0.000000	
89	0.000000	0.000000	0.000000	0.000000	0.000000	
90	0.000000	0.000000	0.000000	0.000000	0.000000	
91	0.000000	0.000000	0.000000	0.000000	0.000000	
92	0.000000	0.000000	0.000000	0.000000	0.000000	
93	0.000000	0.000000	0.000000	0.000000	0.000000	
94	0.000000	0.000000	0.000000	0.000000	0.000000	
95	0.000000	0.000000	0.000000	0.000000	0.000000	
96	0.000000	0.000000	0.000000	0.000000	0.000000	
97	0.000000	0.000000	0.000000	0.000000	0.000000	
98	0.000000	0.000000	0.000000	0.000000	0.000000	
99	0.000000	0.000000	0.000000	0.000000	0.000000	
100	0.000000	0.000000	0.000000	0.000000	0.000000	
DEPOT_SECTION
0.0000 0.00000
-1
EOF

